75
[15,16,17,18,19,20,21,22,23,24,25,26,27,28,29,30,31,32,33,34,35,36,37,38,39,40,41,42,43,44,45,46,47,48,49,50,51,52]
[16,26,17,19,11,27,22,29,22,13,22,20,17,27,15,25,20,18,16,25,24,19,24,22,12,15,31,22,25,13,18,19,15,22,12,18,15,17]
